(set-option :produce-models true)
(set-logic QF_UF)
(declare-fun p67() Bool)
(declare-fun p46() Bool)
(declare-fun p47() Bool)
(declare-fun p34() Bool)
(declare-fun p56() Bool)
(declare-fun p13() Bool)
(declare-fun p68() Bool)
(declare-fun p30() Bool)
(declare-fun p75() Bool)
(declare-fun p23() Bool)
(declare-fun p40() Bool)
(declare-fun p5() Bool)
(declare-fun p33() Bool)
(declare-fun p48() Bool)
(declare-fun p90() Bool)
(declare-fun p55() Bool)
(declare-fun p32() Bool)
(declare-fun p35() Bool)
(declare-fun p42() Bool)
(declare-fun p118() Bool)
(declare-fun p99() Bool)
(declare-fun p6() Bool)
(declare-fun p61() Bool)
(declare-fun p36() Bool)
(declare-fun p95() Bool)
(declare-fun p73() Bool)
(declare-fun p17() Bool)
(declare-fun p83() Bool)
(declare-fun p105() Bool)
(declare-fun p115() Bool)
(declare-fun p65() Bool)
(declare-fun p74() Bool)
(declare-fun p106() Bool)
(declare-fun p37() Bool)
(declare-fun p89() Bool)
(declare-fun p113() Bool)
(declare-fun p119() Bool)
(declare-fun p53() Bool)
(declare-fun p77() Bool)
(declare-fun p50() Bool)
(declare-fun p93() Bool)
(declare-fun p85() Bool)
(declare-fun p63() Bool)
(declare-fun p100() Bool)
(declare-fun p103() Bool)
(declare-fun p49() Bool)
(declare-fun p92() Bool)
(declare-fun p0() Bool)
(declare-fun p109() Bool)
(declare-fun p43() Bool)
(declare-fun p91() Bool)
(declare-fun p24() Bool)
(declare-fun p70() Bool)
(declare-fun p28() Bool)
(declare-fun p45() Bool)
(declare-fun p38() Bool)
(declare-fun p31() Bool)
(declare-fun p3() Bool)
(declare-fun p25() Bool)
(declare-fun p78() Bool)
(declare-fun p112() Bool)
(declare-fun p16() Bool)
(declare-fun p81() Bool)
(declare-fun p84() Bool)
(declare-fun p57() Bool)
(declare-fun p76() Bool)
(declare-fun p60() Bool)
(declare-fun p11() Bool)
(declare-fun p59() Bool)
(declare-fun p18() Bool)
(declare-fun p86() Bool)
(declare-fun p111() Bool)
(declare-fun p1() Bool)
(declare-fun p72() Bool)
(declare-fun p7() Bool)
(declare-fun p82() Bool)
(declare-fun p54() Bool)
(declare-fun p96() Bool)
(declare-fun p98() Bool)
(declare-fun p110() Bool)
(declare-fun p26() Bool)
(declare-fun p52() Bool)
(declare-fun p9() Bool)
(declare-fun p62() Bool)
(declare-fun p97() Bool)
(declare-fun p58() Bool)
(declare-fun p15() Bool)
(declare-fun p19() Bool)
(declare-fun p27() Bool)
(declare-fun p66() Bool)
(declare-fun p107() Bool)
(declare-fun p87() Bool)
(declare-fun p64() Bool)
(declare-fun p29() Bool)
(declare-fun p20() Bool)
(declare-fun p2() Bool)
(declare-fun p80() Bool)
(declare-fun p51() Bool)
(declare-fun p21() Bool)
(declare-fun p8() Bool)
(declare-fun p10() Bool)
(declare-fun p39() Bool)
(declare-fun p69() Bool)
(declare-fun p22() Bool)
(declare-fun p102() Bool)
(declare-fun p101() Bool)
(declare-fun p4() Bool)
(declare-fun p79() Bool)
(declare-fun p116() Bool)
(declare-fun p114() Bool)
(declare-fun p104() Bool)
(declare-fun p117() Bool)
(declare-fun p41() Bool)
(declare-fun p44() Bool)
(declare-fun p71() Bool)
(declare-fun p12() Bool)
(declare-fun p14() Bool)
(declare-fun p94() Bool)
(declare-fun p108() Bool)
(declare-fun p88() Bool)
(assert
(and (or p67 (not p46) (not p47)) (or p34 (not p56) p13) (or p68 (not p30) (not p75)) (or (not p23) (not p40) p5) (or (not p33) (not p48) (not p34)) (or (not p90) p55 p32) (or p35 (not p42) (not p118)) (or p99 p90 p6) (or p61 (not p36) p95) (or (not p73) p17 p83) (or (not p105) p115 (not p65)) (or p34 p74 p106) (or p37 p89 p48) (or (not p113) (not p119) p53) (or p77 p48 p50) (or p93 p73 p85) (or (not p63) (not p115) p47) (or p100 p103 p46) (or (not p115) p95 (not p49)) (or (not p92) (not p17) p90) (or p0 (not p109) p43) (or (not p91) p35 p24) (or (not p23) (not p65) (not p70)) (or (not p28) (not p35) p45) (or (not p38) p47 (not p31)) (or p83 p36 (not p99)) (or (not p91) (not p75) p40) (or (not p3) (not p25) p3) (or p78 (not p112) (not p16)) (or (not p81) (not p84) p25) (or (not p57) (not p13) (not p76)) (or p60 (not p11) (not p17)) (or (not p59) (not p34) p18) (or p118 p105 (not p17)) (or p55 (not p115) (not p86)) (or (not p30) p111 p42) (or p11 p5 (not p1)) (or p37 p13 (not p73)) (or (not p61) (not p46) (not p32)) (or (not p72) (not p16) (not p50)) (or p7 (not p82) p7) (or p24 p59 (not p76)) (or p92 (not p54) (not p86)) (or p23 p72 (not p113)) (or p96 (not p13) (not p23)) (or (not p98) (not p92) p74) (or (not p110) (not p38) p82) (or (not p105) p42 (not p26)) (or p16 p54 p52) (or (not p119) p9 p62) (or p109 (not p35) (not p97)) (or (not p58) (not p56) p25) (or (not p100) p46 (not p118)) (or (not p15) p105 (not p50)) (or (not p34) p19 (not p97)) (or (not p27) (not p98) (not p59)) (or (not p83) (not p90) p66) (or p0 p90 p62) (or (not p98) (not p110) p31) (or (not p107) (not p87) (not p103)) (or p83 p85 p100) (or p107 (not p61) p87) (or p64 p75 (not p58)) (or (not p62) (not p29) p91) (or p97 p111 (not p20)) (or p118 p2 (not p67)) (or p66 (not p90) p38) (or (not p99) (not p60) (not p74)) (or p59 (not p53) (not p35)) (or (not p80) (not p51) p34) (or (not p50) p9 p103) (or p74 p105 p89) (or (not p83) p20 (not p40)) (or p59 p21 (not p8)) (or (not p59) p21 (not p89)) (or p10 p45 p57) (or (not p90) p63 (not p83)) (or p67 p113 p63) (or p29 p46 p113) (or (not p96) p37 (not p103)) (or p39 (not p81) (not p69)) (or (not p36) (not p112) (not p49)) (or (not p22) p55 p99) (or p52 (not p27) p16) (or p74 (not p40) (not p98)) (or (not p89) p102 (not p58)) (or (not p68) p73 (not p112)) (or p22 p3 (not p33)) (or p17 (not p23) (not p52)) (or (not p80) p30 p75) (or (not p60) (not p52) p2) (or (not p55) p105 (not p50)) (or (not p38) (not p15) p101) (or p10 p4 (not p34)) (or (not p82) p9 p38) (or (not p98) p87 p27) (or p43 p90 (not p112)) (or (not p16) (not p23) p23) (or p115 p30 p21) (or (not p1) (not p93) (not p79)) (or p3 p52 p28) (or (not p96) (not p53) (not p57)) (or (not p22) (not p38) (not p80)) (or (not p45) p72 (not p6)) (or (not p78) (not p72) (not p54)) (or p39 (not p49) p6) (or (not p98) p68 p95) (or (not p53) (not p52) (not p55)) (or p96 p75 p98) (or p64 (not p0) p0) (or p101 (not p116) p13) (or p24 (not p77) (not p114)) (or p87 (not p119) (not p70)) (or (not p73) p3 (not p28)) (or (not p2) (not p87) p98) (or p110 (not p104) (not p83)) (or (not p119) (not p15) (not p83)) (or p118 (not p36) (not p110)) (or (not p20) (not p57) (not p117)) (or (not p41) (not p24) p107) (or (not p36) (not p107) (not p57)) (or (not p22) p67 (not p87)) (or (not p84) p48 p5) (or (not p1) (not p44) p17) (or (not p91) (not p64) (not p29)) (or p35 p107 p96) (or (not p67) (not p107) p116) (or p69 p37 p6) (or p28 p31 (not p10)) (or p7 (not p5) (not p48)) (or p102 p83 p40) (or (not p62) p44 p23) (or p112 (not p87) (not p97)) (or (not p9) (not p95) p32) (or (not p28) (not p43) (not p6)) (or p37 (not p42) (not p84)) (or (not p19) (not p71) p69) (or p6 (not p102) p64) (or (not p118) p40 (not p115)) (or (not p37) (not p89) (not p110)) (or p47 (not p5) (not p56)) (or (not p100) p54 p41) (or p43 p53 p89) (or (not p12) (not p79) p5) (or p61 (not p109) p19) (or (not p49) p67 p2) (or p37 p61 p3) (or p116 (not p41) (not p31)) (or (not p23) p8 p14) (or (not p9) p96 (not p0)) (or p28 (not p101) p54) (or p86 p69 (not p116)) (or p102 p50 p29) (or p78 (not p77) (not p86)) (or (not p94) (not p6) (not p101)) (or p14 p10 p47) (or (not p21) p38 (not p114)) (or (not p89) p111 (not p68)) (or (not p73) p76 (not p1)) (or p10 p34 (not p0)) (or p25 p113 p61) (or (not p119) (not p63) p67) (or p45 p38 p26) (or p28 p55 (not p93)) (or (not p38) p0 p85) (or (not p70) p12 p13) (or p17 (not p114) p21) (or p23 (not p50) p24) (or p111 p0 p65) (or (not p93) p101 p34) (or p17 (not p76) (not p90)) (or (not p14) p39 (not p66)) (or p49 (not p97) (not p15)) (or p108 (not p95) p6) (or (not p42) p99 p73) (or (not p33) (not p86) (not p37)) (or (not p35) (not p63) (not p48)) (or p80 (not p86) p32) (or (not p19) (not p15) (not p66)) (or p9 p4 p31) (or (not p14) p69 (not p46)) (or p79 p22 (not p70)) (or p89 p99 (not p110)) (or p115 p31 (not p106)) (or (not p46) (not p87) (not p100)) (or p4 (not p65) (not p91)) (or p14 p51 (not p62)) (or (not p66) p40 p81) (or p2 (not p92) (not p56)) (or (not p89) (not p51) (not p17)) (or (not p77) (not p106) (not p31)) (or (not p85) p114 p77) (or (not p29) p29 p70) (or p67 (not p105) (not p35)) (or p13 (not p3) (not p112)) (or p103 (not p105) (not p30)) (or p105 (not p93) (not p60)) (or p12 p34 p58) (or p65 p105 p9) (or p70 (not p93) (not p70)) (or p13 (not p109) p102) (or (not p41) (not p52) (not p1)) (or p105 p12 p16) (or p100 p92 (not p39)) (or (not p43) (not p28) p70) (or (not p11) (not p95) p28) (or (not p112) (not p67) (not p57)) (or (not p81) p39 (not p13)) (or (not p80) (not p96) p105) (or p97 p54 (not p26)) (or (not p25) p97 (not p42)) (or p66 (not p84) (not p47)) (or p40 (not p108) (not p40)) (or p4 (not p50) p90) (or p47 p61 p89) (or p27 (not p42) (not p95)) (or (not p93) (not p79) (not p25)) (or p12 (not p90) p35) (or p48 p114 (not p84)) (or (not p32) p11 p73) (or (not p52) (not p14) p98) (or p47 p77 (not p101)) (or p46 p95 (not p108)) (or p106 (not p2) (not p72)) (or p117 p23 (not p74)) (or p73 p64 p4) (or p115 p44 (not p38)) (or (not p109) (not p29) p37) (or p53 p105 p19) (or (not p118) (not p91) (not p69)) (or p87 p2 p102) (or (not p46) p102 (not p41)) (or p17 p11 p40) (or p52 p86 (not p72)) (or p97 p101 (not p80)) (or (not p42) (not p51) p106) (or (not p25) p104 p14) (or p61 (not p41) p21) (or p118 (not p72) p53) (or (not p42) p109 p59) (or p102 p37 p18) (or (not p10) (not p74) p114) (or (not p33) p62 p112) (or p91 (not p53) (not p107)) (or p41 (not p64) p103) (or (not p107) (not p80) (not p34)) (or (not p25) p40 p60) (or (not p51) (not p25) p72) (or (not p65) (not p78) (not p74)) (or (not p2) p92 (not p9)) (or (not p80) p64 p34) (or p5 p109 (not p45)) (or (not p1) (not p16) p76) (or (not p102) p119 p51) (or (not p70) p88 (not p115)) (or p70 p46 (not p31)) (or (not p76) p18 p67) (or (not p44) (not p23) p52) (or (not p114) (not p87) (not p47)) (or p16 p41 p6) (or (not p102) (not p0) (not p29)) (or p105 (not p60) (not p112)) (or (not p0) (not p42) (not p72)) (or p52 p74 p79) (or p96 p94 (not p18)) (or (not p52) p95 (not p36)) (or (not p76) p91 (not p15)) (or (not p37) (not p0) (not p110)) (or (not p78) (not p115) (not p13)) (or p112 p74 p22) (or p75 (not p104) p106) (or p64 p37 (not p105)) (or (not p1) (not p26) (not p119)) (or p118 p3 p63) (or p97 (not p10) (not p88)) (or p96 p98 (not p72)) (or (not p109) (not p45) p64) (or (not p72) p19 p112) (or p12 p72 p89) (or p61 (not p89) (not p65)) (or (not p22) (not p32) p90) (or p66 p59 p74) (or (not p51) p8 (not p53)) (or p30 p35 (not p64)) (or (not p75) (not p110) p67) (or p58 p70 (not p38)) (or p10 p2 p64) (or p52 p89 p28) (or (not p102) (not p67) (not p30)) (or p72 p114 (not p52)) (or (not p118) p56 p32) (or p54 (not p80) (not p77)) (or (not p119) (not p30) (not p63)) (or p64 p32 (not p89)) (or p40 (not p37) p28) (or p59 (not p36) p98) (or (not p101) p49 (not p2)) (or p92 p28 p97) (or p57 p105 p73) (or (not p97) p95 p111) (or (not p24) p40 (not p7)) (or p77 p118 p99) (or p65 (not p118) p51) (or p5 (not p26) p76) (or (not p117) p18 (not p99)) (or (not p113) (not p15) (not p99)) (or p108 p18 p37) (or p93 p49 p105) (or p47 p96 p30) (or (not p40) (not p56) p58) (or p59 (not p41) (not p46)) (or (not p23) p37 (not p77)) (or (not p102) p80 p36) (or p64 p84 p25) (or (not p19) p54 (not p17)) (or p92 p58 p95) (or p23 p69 (not p26)) (or (not p32) p14 (not p28)) (or p110 (not p103) (not p111)) (or (not p24) p72 p52) (or (not p0) (not p45) (not p47)) (or (not p113) p102 p3) (or p99 p98 p108) (or p96 p38 (not p15)) (or (not p110) (not p32) p20) (or (not p40) p69 (not p75)) (or (not p90) (not p47) (not p108)) (or p55 (not p97) p15) (or p52 p97 p82) (or p47 p80 p114) (or (not p25) p3 (not p2)) (or (not p90) p52 p18) (or (not p34) p19 (not p55)) (or p67 p49 p65) (or p5 (not p117) p59) (or p95 p113 p7) (or (not p119) p66 p12) (or p119 p89 p74) (or p30 (not p97) (not p20)) (or p85 (not p101) p34) (or p5 (not p3) p45) (or (not p119) (not p3) p11) (or p59 (not p95) p37) (or p85 p65 (not p105)) (or (not p0) p58 (not p93)) (or (not p32) (not p42) (not p107)) (or p54 p71 p1) (or (not p86) p20 (not p109)) (or p97 p71 p62) (or (not p68) (not p107) (not p0)) (or (not p101) p116 (not p61)) (or p22 (not p94) (not p98)) (or (not p117) p85 p98) (or (not p107) (not p85) (not p66)) (or (not p117) (not p89) (not p97)) (or (not p109) p79 p23) (or p61 (not p8) (not p33)) (or p60 p77 (not p89)) (or p115 p52 p118) (or p100 p117 p49) (or p74 p33 (not p31)) (or (not p3) (not p87) p75) (or (not p17) (not p5) p93) (or p92 p43 (not p58)) (or p39 (not p112) (not p17)) (or (not p52) p87 (not p74)) (or (not p27) (not p19) p56) (or (not p25) p78 (not p24)) (or p35 p117 p20) (or (not p4) p45 (not p50)) (or (not p108) p116 p96) (or (not p37) p26 (not p56)) (or p25 p84 p2) (or p104 p111 p102) (or (not p72) (not p118) p84) (or p113 (not p51) (not p2)) (or p5 (not p92) (not p106)) (or p46 p25 (not p75)) (or (not p95) p23 p10) (or (not p23) (not p55) p22) (or (not p5) (not p42) p98) (or p97 (not p104) (not p14)) (or p20 p93 p28) (or (not p11) (not p8) (not p12)) (or (not p26) p15 p107) (or (not p106) p45 p112) (or (not p104) (not p74) (not p1)) (or (not p32) p94 (not p33)) (or (not p66) p4 (not p105)) (or p81 p69 (not p41)) (or (not p47) p24 (not p45)) (or p103 (not p75) p62) (or (not p90) p7 p38) (or (not p42) p77 (not p25)) (or (not p22) (not p108) (not p22)) (or (not p98) p64 (not p51)) (or (not p45) p75 p57) (or (not p92) (not p59) (not p19)) (or (not p54) (not p2) p118) (or p55 (not p4) p65) (or p11 (not p17) p40) (or (not p116) (not p0) (not p4)) (or (not p96) p110 p111) (or (not p113) p20 (not p14)) (or p32 p62 (not p72)) (or p48 (not p42) (not p57)) (or p109 (not p58) (not p62)) (or (not p65) (not p68) p105) (or p59 (not p16) (not p13)) (or (not p118) (not p78) p54) (or p66 p48 p47) (or (not p42) (not p45) p22) (or p119 p89 p82) (or (not p20) (not p74) (not p74)) (or p46 (not p5) p74) (or p50 (not p41) (not p28)) (or (not p90) (not p31) p30) (or (not p42) p49 p39) (or p17 (not p32) (not p72)) (or p4 p65 p66) (or (not p7) (not p39) p96) (or (not p115) (not p17) p94) (or (not p89) (not p6) (not p53)) (or (not p43) (not p79) (not p16)) (or p33 (not p68) (not p25)) (or (not p50) (not p23) p64) (or p2 (not p28) p3) (or (not p89) (not p23) p65) (or p22 p25 p53) (or (not p48) (not p74) (not p57)) (or p98 (not p112) (not p87)) (or p110 (not p7) p63) (or p70 p104 p109) (or p107 p45 p78) (or p112 p43 p107) (or (not p45) (not p15) p112) (or (not p79) p36 p75) (or p98 p46 (not p71)) (or (not p96) (not p23) p72) (or (not p104) (not p3) p45) (or p70 (not p74) (not p3)) (or p93 p92 (not p23)) (or (not p68) p88 p78) (or p68 p68 p113) (or p3 p96 (not p51)) (or p32 (not p101) p80) (or (not p16) p2 p74) (or p39 (not p70) p95) (or (not p9) (not p8) p6) (or (not p63) p102 p35) (or p91 p104 p99) (or (not p110) (not p27) (not p36)) (or p89 (not p37) (not p51)) (or (not p100) (not p52) (not p4)) (or (not p38) (not p12) p99) (or (not p28) (not p22) (not p100)) (or p34 (not p39) p101) (or (not p102) p72 p83) (or p59 (not p55) p54) (or p85 (not p76) (not p113)) (or (not p63) (not p93) (not p102)) (or p99 (not p24) p62) (or (not p53) (not p63) (not p104)) (or (not p1) (not p36) p22) (or (not p77) (not p6) (not p69)) (or (not p13) p56 (not p100)) (or (not p63) (not p24) (not p80)) (or p60 (not p15) (not p2)) (or (not p112) (not p29) p40) (or p34 p64 p28) (or (not p90) (not p72) p60) (or (not p115) (not p73) (not p9)) (or (not p112) p112 p8) (or p69 (not p103) p43) (or (not p39) (not p107) p33) (or p81 (not p14) p60) (or (not p29) (not p59) (not p48)) (or p106 p53 (not p116)) (or (not p102) p55 p40) (or (not p87) p106 p113) (or (not p20) (not p95) (not p17)) (or p85 p47 (not p57)) (or p17 (not p29) p110) (or p26 p40 (not p85)) (or (not p12) (not p42) (not p45)) (or (not p59) (not p28) p79) (or p114 p20 p113) (or p95 (not p84) p118) (or (not p98) p18 p38) (or p90 p84 p95) (or p52 (not p76) p67) (or p74 p115 (not p22)) (or (not p117) p82 (not p106)) (or p66 p81 (not p16)) (or p57 (not p108) (not p46)) (or (not p12) (not p63) (not p50)) (or p110 p16 (not p29)) (or (not p62) (not p46) p89) (or p1 (not p80) (not p67)) (or (not p3) p16 (not p81)) (or (not p64) (not p18) p67) (or p102 (not p91) p84) (or p74 p99 (not p119)) (or (not p52) p37 p40) (or p32 (not p68) p32) (or (not p35) p43 p70) (or (not p89) p68 (not p28)) (or (not p108) p33 p98) (or p0 (not p103) (not p21)) (or p85 p86 p18) (or p60 (not p95) (not p80)) (or p13 (not p42) (not p93)) (or (not p30) p79 p97) (or (not p56) (not p40) p92) (or (not p113) p75 p101) (or p4 p44 (not p105)) (or p12 (not p58) (not p67)) (or (not p26) (not p35) (not p2)) (or p16 p100 (not p21)) (or p111 (not p108) (not p66)) (or (not p108) p106 p103) (or (not p65) p40 p87) (or (not p74) (not p92) (not p24)) (or (not p27) (not p40) p101) (or p106 (not p118) p20) (or p97 p24 (not p33)) (or (not p91) (not p11) (not p44)) (or (not p28) (not p27) (not p70)) (or p45 (not p82) p113) (or p107 p57 (not p114)) (or p42 p88 (not p16)) (or p38 (not p70) (not p80)) (or p67 p16 p70) (or (not p47) p93 p106) (or p98 (not p34) (not p6)) (or p97 p17 (not p55)) (or p23 p18 (not p78)) (or (not p83) (not p61) (not p91)) (or p100 (not p55) p60) (or p106 (not p96) (not p16)) (or p18 (not p46) p79) (or p94 p19 p38) (or (not p69) (not p24) p54) (or p61 (not p9) p104) (or (not p12) p102 p116) (or (not p117) p21 (not p105)) (or (not p87) (not p23) (not p51)) (or p7 p99 (not p66)) (or (not p21) (not p34) p96) (or (not p29) p118 (not p27)) (or p5 p78 p89) (or p16 p66 p27) (or p12 p66 (not p110)) (or (not p89) p23 p80) (or (not p87) p13 (not p7)) (or (not p61) p71 (not p72)) (or p43 p84 p97) (or p27 p106 (not p31)) (or (not p30) p32 (not p78)) (or p116 p44 p39) (or p101 (not p8) p45) (or p102 p39 p10) (or (not p102) (not p75) (not p3)) (or p97 p77 (not p11)) (or p77 p36 (not p64)) (or (not p68) p32 (not p116)) (or (not p71) p10 p68) (or (not p53) (not p57) p98) (or (not p27) p47 (not p80)) (or (not p42) p8 p38) (or p6 (not p17) p29) (or p8 (not p118) (not p113)) (or p117 p78 (not p34)) (or p88 (not p81) p108) (or (not p117) p92 p119) (or p19 p68 (not p103)) (or p73 (not p5) (not p12)) (or p46 p43 p92) (or (not p85) (not p20) (not p117)) (or (not p88) p97 (not p54)) (or (not p107) p108 (not p72)) (or p65 (not p64) p13) (or p20 (not p71) p35) (or (not p22) p108 p70) (or p7 (not p31) p54) (or (not p5) p77 (not p45)) (or (not p56) (not p51) p44) (or p68 (not p76) (not p61)) (or p60 p97 (not p76)) (or p28 p35 (not p28)) (or (not p71) p111 p24) (or (not p16) p96 p25) (or (not p98) p5 p108) (or (not p36) p92 p38) (or p65 p93 (not p79)) (or p48 p81 p7) (or p25 p96 (not p50)) (or p78 (not p81) p29) (or (not p92) p7 p77))
)
(check-sat)
(get-model)
